c 
c G(n,p) graph
c graph gen seed     : 8528
c number of vertices : 60
c max number of edges: 1770
c edge probability   : 0.400000
c data structure     : sparse
c
c           Graph Stats
c number of vertices  : 60
c nonisolated vertices: 60
c number of edges     : 719
c edge density        : 0.406215
c max degree          : 34
c avg degree          : 23.97
c min degree          : 16
p col 60 719
e 1 60
e 1 58
e 1 57
e 1 54
e 1 53
e 1 51
e 1 46
e 1 43
e 1 40
e 1 36
e 1 34
e 1 32
e 1 31
e 1 27
e 1 25
e 1 21
e 1 18
e 1 14
e 1 12
e 1 8
e 1 3
e 1 2
e 2 55
e 2 54
e 2 52
e 2 51
e 2 49
e 2 48
e 2 43
e 2 40
e 2 39
e 2 37
e 2 36
e 2 30
e 2 25
e 2 24
e 2 20
e 2 19
e 2 17
e 2 16
e 2 15
e 2 14
e 2 13
e 2 11
e 2 9
e 2 3
e 3 56
e 3 55
e 3 50
e 3 48
e 3 46
e 3 45
e 3 41
e 3 40
e 3 33
e 3 29
e 3 25
e 3 22
e 3 18
e 3 17
e 3 15
e 3 13
e 3 11
e 3 10
e 3 6
e 3 5
e 4 59
e 4 56
e 4 55
e 4 49
e 4 47
e 4 44
e 4 43
e 4 41
e 4 38
e 4 33
e 4 30
e 4 29
e 4 27
e 4 26
e 4 24
e 4 17
e 4 15
e 4 13
e 4 12
e 4 11
e 4 9
e 4 8
e 4 7
e 4 6
e 5 60
e 5 55
e 5 52
e 5 50
e 5 47
e 5 41
e 5 40
e 5 38
e 5 37
e 5 33
e 5 28
e 5 25
e 5 24
e 5 23
e 5 21
e 5 20
e 5 19
e 5 18
e 5 14
e 5 13
e 5 12
e 5 11
e 5 8
e 5 7
e 6 60
e 6 53
e 6 52
e 6 51
e 6 49
e 6 44
e 6 40
e 6 36
e 6 35
e 6 34
e 6 33
e 6 32
e 6 29
e 6 27
e 6 24
e 6 21
e 6 20
e 6 18
e 6 14
e 6 13
e 6 9
e 6 7
e 7 59
e 7 56
e 7 55
e 7 54
e 7 53
e 7 51
e 7 50
e 7 49
e 7 48
e 7 47
e 7 45
e 7 44
e 7 42
e 7 41
e 7 40
e 7 33
e 7 32
e 7 30
e 7 29
e 7 23
e 7 20
e 7 18
e 7 15
e 8 58
e 8 55
e 8 54
e 8 50
e 8 40
e 8 38
e 8 35
e 8 34
e 8 31
e 8 30
e 8 26
e 8 24
e 8 21
e 8 20
e 8 19
e 8 18
e 8 17
e 8 13
e 8 10
e 9 57
e 9 56
e 9 52
e 9 51
e 9 46
e 9 44
e 9 40
e 9 39
e 9 37
e 9 36
e 9 33
e 9 31
e 9 26
e 9 24
e 9 23
e 9 22
e 9 18
e 9 16
e 9 15
e 9 14
e 9 11
e 10 58
e 10 57
e 10 56
e 10 53
e 10 51
e 10 49
e 10 48
e 10 47
e 10 46
e 10 43
e 10 42
e 10 41
e 10 40
e 10 39
e 10 38
e 10 36
e 10 34
e 10 32
e 10 29
e 10 25
e 10 24
e 10 23
e 10 20
e 10 19
e 10 16
e 10 15
e 10 14
e 11 60
e 11 59
e 11 58
e 11 57
e 11 56
e 11 55
e 11 54
e 11 52
e 11 50
e 11 48
e 11 47
e 11 46
e 11 43
e 11 39
e 11 38
e 11 37
e 11 36
e 11 32
e 11 31
e 11 30
e 11 28
e 11 25
e 11 24
e 11 23
e 11 22
e 11 21
e 11 20
e 11 18
e 11 17
e 12 57
e 12 55
e 12 52
e 12 50
e 12 49
e 12 40
e 12 37
e 12 29
e 12 28
e 12 27
e 12 21
e 12 20
e 12 18
e 12 14
e 13 56
e 13 55
e 13 52
e 13 51
e 13 49
e 13 48
e 13 46
e 13 41
e 13 38
e 13 37
e 13 35
e 13 33
e 13 27
e 13 26
e 13 24
e 13 23
e 13 16
e 13 15
e 14 59
e 14 58
e 14 55
e 14 52
e 14 51
e 14 47
e 14 41
e 14 38
e 14 36
e 14 32
e 14 27
e 14 25
e 14 21
e 14 19
e 14 17
e 14 15
e 15 60
e 15 59
e 15 58
e 15 56
e 15 54
e 15 53
e 15 52
e 15 50
e 15 48
e 15 47
e 15 46
e 15 44
e 15 42
e 15 40
e 15 38
e 15 31
e 15 28
e 15 27
e 15 26
e 15 25
e 15 22
e 15 19
e 15 18
e 15 16
e 16 60
e 16 59
e 16 58
e 16 54
e 16 53
e 16 51
e 16 50
e 16 48
e 16 46
e 16 45
e 16 42
e 16 40
e 16 35
e 16 34
e 16 33
e 16 31
e 16 24
e 16 22
e 16 21
e 16 18
e 17 59
e 17 56
e 17 55
e 17 52
e 17 51
e 17 49
e 17 47
e 17 45
e 17 44
e 17 43
e 17 41
e 17 40
e 17 34
e 17 31
e 17 27
e 17 24
e 17 22
e 17 20
e 18 59
e 18 57
e 18 56
e 18 52
e 18 51
e 18 50
e 18 49
e 18 47
e 18 44
e 18 42
e 18 41
e 18 39
e 18 38
e 18 36
e 18 29
e 18 27
e 18 23
e 18 21
e 19 60
e 19 58
e 19 57
e 19 56
e 19 55
e 19 54
e 19 53
e 19 52
e 19 51
e 19 49
e 19 46
e 19 45
e 19 41
e 19 38
e 19 33
e 19 32
e 19 29
e 19 25
e 20 60
e 20 58
e 20 53
e 20 51
e 20 44
e 20 43
e 20 42
e 20 41
e 20 35
e 20 34
e 20 33
e 20 32
e 20 30
e 20 29
e 20 28
e 20 23
e 21 58
e 21 56
e 21 54
e 21 53
e 21 50
e 21 48
e 21 44
e 21 42
e 21 36
e 21 35
e 21 34
e 21 31
e 21 30
e 21 28
e 21 27
e 21 23
e 21 22
e 22 57
e 22 54
e 22 48
e 22 46
e 22 45
e 22 44
e 22 43
e 22 42
e 22 38
e 22 36
e 22 34
e 22 31
e 22 29
e 22 26
e 22 25
e 22 24
e 22 23
e 23 57
e 23 53
e 23 51
e 23 50
e 23 45
e 23 37
e 23 35
e 23 34
e 23 33
e 23 31
e 23 30
e 23 28
e 24 60
e 24 59
e 24 58
e 24 55
e 24 52
e 24 48
e 24 47
e 24 46
e 24 45
e 24 44
e 24 43
e 24 38
e 24 35
e 24 34
e 24 33
e 24 32
e 24 30
e 24 27
e 24 25
e 25 57
e 25 49
e 25 46
e 25 45
e 25 44
e 25 43
e 25 42
e 25 39
e 25 38
e 25 36
e 25 35
e 25 30
e 25 29
e 25 26
e 26 60
e 26 59
e 26 54
e 26 53
e 26 49
e 26 45
e 26 44
e 26 43
e 26 40
e 26 37
e 26 36
e 26 32
e 26 27
e 27 60
e 27 59
e 27 58
e 27 54
e 27 53
e 27 52
e 27 51
e 27 44
e 27 43
e 27 36
e 27 33
e 27 32
e 27 30
e 27 28
e 28 59
e 28 54
e 28 51
e 28 44
e 28 43
e 28 42
e 28 39
e 28 36
e 28 34
e 28 32
e 28 31
e 29 52
e 29 51
e 29 42
e 29 34
e 29 30
e 30 60
e 30 59
e 30 56
e 30 55
e 30 50
e 30 42
e 30 40
e 30 39
e 30 38
e 30 37
e 30 35
e 30 34
e 30 31
e 31 59
e 31 58
e 31 56
e 31 53
e 31 51
e 31 48
e 31 45
e 31 42
e 31 41
e 31 39
e 31 38
e 31 36
e 32 57
e 32 56
e 32 53
e 32 51
e 32 50
e 32 47
e 32 44
e 32 42
e 32 41
e 32 38
e 32 35
e 32 34
e 32 33
e 33 59
e 33 54
e 33 50
e 33 47
e 33 46
e 33 45
e 33 43
e 33 41
e 33 40
e 33 37
e 34 59
e 34 57
e 34 55
e 34 54
e 34 48
e 34 44
e 34 38
e 34 36
e 34 35
e 35 60
e 35 57
e 35 56
e 35 55
e 35 54
e 35 49
e 35 47
e 35 43
e 35 41
e 36 60
e 36 56
e 36 46
e 36 42
e 36 40
e 37 60
e 37 59
e 37 58
e 37 56
e 37 53
e 37 52
e 37 50
e 37 47
e 37 44
e 37 40
e 37 39
e 38 60
e 38 56
e 38 55
e 38 54
e 38 53
e 38 52
e 38 51
e 38 50
e 38 49
e 38 48
e 38 47
e 38 46
e 38 45
e 38 43
e 38 40
e 39 60
e 39 59
e 39 57
e 39 56
e 39 53
e 39 51
e 39 49
e 39 47
e 39 42
e 40 60
e 40 59
e 40 58
e 40 57
e 40 56
e 40 54
e 40 53
e 40 51
e 40 48
e 40 46
e 40 42
e 41 60
e 41 59
e 41 52
e 41 51
e 41 46
e 42 60
e 42 58
e 42 57
e 42 56
e 42 55
e 42 54
e 42 52
e 42 45
e 42 44
e 42 43
e 43 55
e 43 53
e 44 60
e 44 59
e 44 55
e 44 54
e 44 49
e 45 59
e 45 53
e 46 59
e 46 57
e 46 56
e 46 51
e 46 48
e 46 47
e 47 51
e 47 49
e 48 60
e 48 59
e 48 58
e 48 56
e 48 54
e 48 53
e 48 52
e 48 50
e 48 49
e 49 60
e 49 59
e 49 53
e 49 50
e 50 57
e 50 55
e 51 57
e 51 54
e 51 52
e 52 55
e 53 54
e 54 60
e 54 56
e 54 55
e 55 60
e 55 59
e 55 57
e 56 60
e 56 59
e 56 58
e 57 60
e 59 60
